c
c File made with value :
c	m = 3
c	p = 50
c
c Clauses 0 = 51
c Clauses 1 = 51
c
p cnf 153 408
      1       2       3 0
     -1      -2       3 0
     -1       2      -3 0
      1      -2      -3 0
     -4      -2      -5 0
     -4       2       5 0
      4      -2       5 0
      4       2      -5 0
      6       5       7 0
     -6      -5       7 0
     -6       5      -7 0
      6      -5      -7 0
     -8      -7      -9 0
     -8       7       9 0
      8      -7       9 0
      8       7      -9 0
     10       9       3 0
    -10      -9       3 0
    -10       9      -3 0
     10      -9      -3 0
     -1     -11     -12 0
     -1      11      12 0
      1     -11      12 0
      1      11     -12 0
     13      11      14 0
    -13     -11      14 0
    -13      11     -14 0
     13     -11     -14 0
    -15     -14     -16 0
    -15      14      16 0
     15     -14      16 0
     15      14     -16 0
     17      16      18 0
    -17     -16      18 0
    -17      16     -18 0
     17     -16     -18 0
    -19     -18     -20 0
    -19      18      20 0
     19     -18      20 0
     19      18     -20 0
     21      20      12 0
    -21     -20      12 0
    -21      20     -12 0
     21     -20     -12 0
    -13     -22     -23 0
    -13      22      23 0
     13     -22      23 0
     13      22     -23 0
     24      22      25 0
    -24     -22      25 0
    -24      22     -25 0
     24     -22     -25 0
    -26     -25     -27 0
    -26      25      27 0
     26     -25      27 0
     26      25     -27 0
     28      27      29 0
    -28     -27      29 0
    -28      27     -29 0
     28     -27     -29 0
    -30     -29     -23 0
    -30      29      23 0
     30     -29      23 0
     30      29     -23 0
     24      31      32 0
    -24     -31      32 0
    -24      31     -32 0
     24     -31     -32 0
    -33     -31     -34 0
    -33      31      34 0
     33     -31      34 0
     33      31     -34 0
     35      34      36 0
    -35     -34      36 0
    -35      34     -36 0
     35     -34     -36 0
    -37     -36     -38 0
    -37      36      38 0
     37     -36      38 0
     37      36     -38 0
     39      38      40 0
    -39     -38      40 0
    -39      38     -40 0
     39     -38     -40 0
    -41     -40     -32 0
    -41      40      32 0
     41     -40      32 0
     41      40     -32 0
     33      42      43 0
    -33     -42      43 0
    -33      42     -43 0
     33     -42     -43 0
    -44     -42     -45 0
    -44      42      45 0
     44     -42      45 0
     44      42     -45 0
     46      45      47 0
    -46     -45      47 0
    -46      45     -47 0
     46     -45     -47 0
    -48     -47     -49 0
    -48      47      49 0
     48     -47      49 0
     48      47     -49 0
     50      49      51 0
    -50     -49      51 0
    -50      49     -51 0
     50     -49     -51 0
    -52     -51     -53 0
    -52      51      53 0
     52     -51      53 0
     52      51     -53 0
     54      53      43 0
    -54     -53      43 0
    -54      53     -43 0
     54     -53     -43 0
    -44     -55     -56 0
    -44      55      56 0
     44     -55      56 0
     44      55     -56 0
     57      55      58 0
    -57     -55      58 0
    -57      55     -58 0
     57     -55     -58 0
    -59     -58     -60 0
    -59      58      60 0
     59     -58      60 0
     59      58     -60 0
     61      60      62 0
    -61     -60      62 0
    -61      60     -62 0
     61     -60     -62 0
    -63     -62     -64 0
    -63      62      64 0
     63     -62      64 0
     63      62     -64 0
     65      64      56 0
    -65     -64      56 0
    -65      64     -56 0
     65     -64     -56 0
    -57     -66     -67 0
    -57      66      67 0
     57     -66      67 0
     57      66     -67 0
     68      66      69 0
    -68     -66      69 0
    -68      66     -69 0
     68     -66     -69 0
    -70     -69     -71 0
    -70      69      71 0
     70     -69      71 0
     70      69     -71 0
     72      71      73 0
    -72     -71      73 0
    -72      71     -73 0
     72     -71     -73 0
    -74     -73     -67 0
    -74      73      67 0
     74     -73      67 0
     74      73     -67 0
     68      75      76 0
    -68     -75      76 0
    -68      75     -76 0
     68     -75     -76 0
    -77     -75     -78 0
    -77      75      78 0
     77     -75      78 0
     77      75     -78 0
     79      78      80 0
    -79     -78      80 0
    -79      78     -80 0
     79     -78     -80 0
    -81     -80     -82 0
    -81      80      82 0
     81     -80      82 0
     81      80     -82 0
     83      82      84 0
    -83     -82      84 0
    -83      82     -84 0
     83     -82     -84 0
    -85     -84     -76 0
    -85      84      76 0
     85     -84      76 0
     85      84     -76 0
     77      86      87 0
    -77     -86      87 0
    -77      86     -87 0
     77     -86     -87 0
     -4     -86     -88 0
     -4      86      88 0
      4     -86      88 0
      4      86     -88 0
     89      88      90 0
    -89     -88      90 0
    -89      88     -90 0
     89     -88     -90 0
    -91     -90     -92 0
    -91      90      92 0
     91     -90      92 0
     91      90     -92 0
     93      92      87 0
    -93     -92      87 0
    -93      92     -87 0
     93     -92     -87 0
    -94     -95     -96 0
    -94      95      96 0
     94     -95      96 0
     94      95     -96 0
     97      95      98 0
    -97     -95      98 0
    -97      95     -98 0
     97     -95     -98 0
     -6     -98     -99 0
     -6      98      99 0
      6     -98      99 0
      6      98     -99 0
     30      99     100 0
    -30     -99     100 0
    -30      99    -100 0
     30     -99    -100 0
    -74    -100     -96 0
    -74     100      96 0
     74    -100      96 0
     74     100     -96 0
     94     101     102 0
    -94    -101     102 0
    -94     101    -102 0
     94    -101    -102 0
   -103    -101    -104 0
   -103     101     104 0
    103    -101     104 0
    103     101    -104 0
      8     104     105 0
     -8    -104     105 0
     -8     104    -105 0
      8    -104    -105 0
    -15    -105    -106 0
    -15     105     106 0
     15    -105     106 0
     15     105    -106 0
     54     106     107 0
    -54    -106     107 0
    -54     106    -107 0
     54    -106    -107 0
    -83    -107    -102 0
    -83     107     102 0
     83    -107     102 0
     83     107    -102 0
    103     108     109 0
   -103    -108     109 0
   -103     108    -109 0
    103    -108    -109 0
   -110    -108    -111 0
   -110     108     111 0
    110    -108     111 0
    110     108    -111 0
     19     111     112 0
    -19    -111     112 0
    -19     111    -112 0
     19    -111    -112 0
    -26    -112    -113 0
    -26     112     113 0
     26    -112     113 0
     26     112    -113 0
     63     113     109 0
    -63    -113     109 0
    -63     113    -109 0
     63    -113    -109 0
   -110    -114    -115 0
   -110     114     115 0
    110    -114     115 0
    110     114    -115 0
    116     114     117 0
   -116    -114     117 0
   -116     114    -117 0
    116    -114    -117 0
    -10    -117    -118 0
    -10     117     118 0
     10    -117     118 0
     10     117    -118 0
     35     118     119 0
    -35    -118     119 0
    -35     118    -119 0
     35    -118    -119 0
    -52    -119    -120 0
    -52     119     120 0
     52    -119     120 0
     52     119    -120 0
     61     120     115 0
    -61    -120     115 0
    -61     120    -115 0
     61    -120    -115 0
   -116    -121    -122 0
   -116     121     122 0
    116    -121     122 0
    116     121    -122 0
    123     121     124 0
   -123    -121     124 0
   -123     121    -124 0
    123    -121    -124 0
    -17    -124    -125 0
    -17     124     125 0
     17    -124     125 0
     17     124    -125 0
     37     125     126 0
    -37    -125     126 0
    -37     125    -126 0
     37    -125    -126 0
    -46    -126    -127 0
    -46     126     127 0
     46    -126     127 0
     46     126    -127 0
     65     127     128 0
    -65    -127     128 0
    -65     127    -128 0
     65    -127    -128 0
    -85    -128    -122 0
    -85     128     122 0
     85    -128     122 0
     85     128    -122 0
    123     129     130 0
   -123    -129     130 0
   -123     129    -130 0
    123    -129    -130 0
   -131    -129    -132 0
   -131     129     132 0
    131    -129     132 0
    131     129    -132 0
     39     132     133 0
    -39    -132     133 0
    -39     132    -133 0
     39    -132    -133 0
    -48    -133    -134 0
    -48     133     134 0
     48    -133     134 0
     48     133    -134 0
     59     134     135 0
    -59    -134     135 0
    -59     134    -135 0
     59    -134    -135 0
    -93    -135    -130 0
    -93     135     130 0
     93    -135     130 0
     93     135    -130 0
    131     136     137 0
   -131    -136     137 0
   -131     136    -137 0
    131    -136    -137 0
   -138    -136    -139 0
   -138     136     139 0
    138    -136     139 0
    138     136    -139 0
     41     139     140 0
    -41    -139     140 0
    -41     139    -140 0
     41    -139    -140 0
    -70    -140    -141 0
    -70     140     141 0
     70    -140     141 0
     70     140    -141 0
     81     141     137 0
    -81    -141     137 0
    -81     141    -137 0
     81    -141    -137 0
   -138    -142    -143 0
   -138     142     143 0
    138    -142     143 0
    138     142    -143 0
    144     142     145 0
   -144    -142     145 0
   -144     142    -145 0
    144    -142    -145 0
    -21    -145    -146 0
    -21     145     146 0
     21    -145     146 0
     21     145    -146 0
     50     146     147 0
    -50    -146     147 0
    -50     146    -147 0
     50    -146    -147 0
    -79    -147    -148 0
    -79     147     148 0
     79    -147     148 0
     79     147    -148 0
     91     148     143 0
    -91    -148     143 0
    -91     148    -143 0
     91    -148    -143 0
   -144    -149    -150 0
   -144     149     150 0
    144    -149     150 0
    144     149    -150 0
     97     149     151 0
    -97    -149     151 0
    -97     149    -151 0
     97    -149    -151 0
    -28    -151    -152 0
    -28     151     152 0
     28    -151     152 0
     28     151    -152 0
     72     152     153 0
    -72    -152     153 0
    -72     152    -153 0
     72    -152    -153 0
    -89    -153    -150 0
    -89     153     150 0
     89    -153     150 0
     89     153    -150 0
